p cnf 75 450
1 -75 -56 0
1 -75 -52 0
1 -75 -42 0
1 -75 -40 0
1 -75 51 0
1 -75 67 0
1 -74 -47 0
1 -74 -30 0
1 -74 9 0
1 -74 34 0
1 -74 45 0
1 -74 70 0
1 -73 -64 0
1 -73 9 0
1 -73 21 0
1 -73 40 0
1 -73 47 0
1 -73 48 0
1 -72 -23 0
1 -72 -6 0
1 -72 2 0
1 -72 14 0
1 -72 69 0
1 -72 70 0
1 -71 -63 0
1 -71 -18 0
1 -71 -11 0
1 -71 6 0
1 -71 19 0
1 -71 49 0
1 -70 -57 0
1 -70 -39 0
1 -70 -30 0
1 -70 1 0
1 -70 47 0
1 -70 66 0
1 -69 -26 0
1 -69 -19 0
1 -69 17 0
1 -69 50 0
1 -69 60 0
1 -69 70 0
1 -68 -52 0
1 -68 -34 0
1 -68 -30 0
1 -68 -16 0
1 -68 -8 0
1 -68 64 0
1 -67 -28 0
1 -67 -23 0
1 -67 16 0
1 -67 37 0
1 -67 41 0
1 -67 43 0
1 -66 -39 0
1 -66 -26 0
1 -66 -24 0
1 -66 -11 0
1 -66 1 0
1 -66 15 0
1 -65 -62 0
1 -65 -43 0
1 -65 -37 0
1 -65 -22 0
1 -65 -17 0
1 -65 -7 0
1 -64 -13 0
1 -64 -6 0
1 -64 -3 0
1 -64 28 0
1 -64 60 0
1 -63 -62 0
1 -63 -53 0
1 -63 3 0
1 -63 8 0
1 -63 21 0
1 -62 -2 0
1 -62 27 0
1 -62 32 0
1 -62 66 0
1 -61 -39 0
1 -61 -37 0
1 -61 -13 0
1 -61 7 0
1 -61 23 0
1 -61 68 0
1 -60 -31 0
1 -60 10 0
1 -60 28 0
1 -60 29 0
1 -60 37 0
1 -60 44 0
1 -59 -55 0
1 -59 -42 0
1 -59 12 0
1 -59 14 0
1 -59 40 0
1 -59 46 0
1 -58 -18 0
1 -58 -1 0
1 -58 5 0
1 -58 25 0
1 -58 41 0
1 -58 66 0
1 -57 -32 0
1 -57 -25 0
1 -57 -22 0
1 -57 39 0
1 -57 64 0
1 -56 8 0
1 -56 13 0
1 -56 28 0
1 -56 50 0
1 -56 67 0
1 -55 -48 0
1 -55 27 0
1 -55 42 0
1 -55 73 0
1 -55 75 0
1 -54 -51 0
1 -54 -31 0
1 -54 -23 0
1 -54 -9 0
1 -54 4 0
1 -54 67 0
1 -53 -40 0
1 -53 -21 0
1 -53 29 0
1 -53 52 0
1 -53 69 0
1 -52 -47 0
1 -52 -1 0
1 -52 23 0
1 -52 68 0
1 -51 -34 0
1 -51 -24 0
1 -51 43 0
1 -51 50 0
1 -51 52 0
1 -50 -35 0
1 -50 -32 0
1 -50 -4 0
1 -50 36 0
1 -50 41 0
1 -50 59 0
1 -49 -46 0
1 -49 -15 0
1 -49 -3 0
1 -49 6 0
1 -49 31 0
1 -49 41 0
1 -48 -32 0
1 -48 -1 0
1 -48 7 0
1 -48 13 0
1 -48 40 0
1 -47 -34 0
1 -47 -21 0
1 -47 -14 0
1 -47 6 0
1 -46 -33 0
1 -46 -28 0
1 -46 5 0
1 -46 29 0
1 -46 36 0
1 -45 -34 0
1 -45 -20 0
1 -45 6 0
1 -45 25 0
1 -45 35 0
1 -45 38 0
1 -44 -39 0
1 -44 -5 0
1 -44 3 0
1 -44 18 0
1 -44 21 0
1 -44 54 0
1 -43 -27 0
1 -43 45 0
1 -43 50 0
1 -43 55 0
1 -43 68 0
1 -42 -31 0
1 -42 -27 0
1 -42 -10 0
1 -42 24 0
1 -41 -6 0
1 -41 -4 0
1 -41 12 0
1 -41 20 0
1 -41 33 0
1 -41 39 0
1 -40 -31 0
1 -40 -28 0
1 -40 53 0
1 -40 58 0
1 -39 -37 0
1 -39 74 0
1 -38 -23 0
1 -38 -7 0
1 -38 42 0
1 -38 49 0
1 -38 58 0
1 -38 60 0
1 -37 -5 0
1 -37 7 0
1 -37 71 0
1 -36 -29 0
1 -36 -11 0
1 -36 2 0
1 -36 21 0
1 -36 51 0
1 -36 66 0
1 -35 -14 0
1 -35 22 0
1 -35 30 0
1 -35 43 0
1 -35 70 0
1 -34 23 0
1 -34 51 0
1 -33 4 0
1 -33 6 0
1 -33 11 0
1 -33 51 0
1 -33 65 0
1 -32 58 0
1 -32 59 0
1 -32 75 0
1 -31 -7 0
1 -31 55 0
1 -30 -19 0
1 -30 -11 0
1 -30 49 0
1 -29 -12 0
1 -29 -4 0
1 -29 7 0
1 -29 48 0
1 -29 61 0
1 -28 -22 0
1 -28 -12 0
1 -28 55 0
1 -27 5 0
1 -27 18 0
1 -27 39 0
1 -27 40 0
1 -26 4 0
1 -26 33 0
1 -26 35 0
1 -26 38 0
1 -25 -23 0
1 -25 9 0
1 -25 61 0
1 -25 70 0
1 -25 71 0
1 -24 17 0
1 -24 52 0
1 -24 58 0
1 -24 65 0
1 -23 64 0
1 -22 -19 0
1 -22 1 0
1 -22 55 0
1 -21 19 0
1 -21 32 0
1 -21 57 0
1 -21 59 0
1 -20 18 0
1 -20 31 0
1 -20 55 0
1 -20 64 0
1 -20 71 0
1 -19 20 0
1 -19 54 0
1 -19 56 0
1 -18 27 0
1 -18 34 0
1 -18 46 0
1 -18 66 0
1 -17 -3 0
1 -17 25 0
1 -17 28 0
1 -17 72 0
1 -17 73 0
1 -16 9 0
1 -16 11 0
1 -16 44 0
1 -16 63 0
1 -16 75 0
1 -15 14 0
1 -15 30 0
1 -15 39 0
1 -15 45 0
1 -15 68 0
1 -14 38 0
1 -14 45 0
1 -14 48 0
1 -14 63 0
1 -13 5 0
1 -13 19 0
1 -13 22 0
1 -13 24 0
1 -12 4 0
1 -12 22 0
1 -12 53 0
1 -12 58 0
1 -11 64 0
1 -11 75 0
1 -10 5 0
1 -10 13 0
1 -10 26 0
1 -10 36 0
1 -10 42 0
1 -9 6 0
1 -9 14 0
1 -9 22 0
1 -9 53 0
1 -9 69 0
1 -8 15 0
1 -8 34 0
1 -8 48 0
1 -8 61 0
1 -8 63 0
1 -7 -5 0
1 -7 11 0
1 -7 54 0
1 -6 50 0
1 -6 56 0
1 -6 71 0
1 -5 -2 0
1 -5 20 0
1 -5 68 0
1 -4 9 0
1 -4 30 0
1 -4 32 0
1 -3 39 0
1 -3 56 0
1 -3 73 0
1 -2 15 0
1 -2 37 0
1 -2 38 0
1 -2 60 0
1 -1 12 0
1 -1 20 0
1 -1 72 0
1 1 2 0
1 1 49 0
1 1 75 0
1 2 34 0
1 2 64 0
1 2 72 0
1 3 7 0
1 3 27 0
1 3 34 0
1 3 35 0
1 4 57 0
1 4 60 0
1 5 46 0
1 7 24 0
1 8 36 0
1 8 47 0
1 8 59 0
1 8 60 0
1 9 17 0
1 10 15 0
1 10 22 0
1 10 23 0
1 10 42 0
1 10 59 0
1 11 17 0
1 11 44 0
1 11 71 0
1 12 17 0
1 12 24 0
1 12 47 0
1 13 26 0
1 13 36 0
1 13 71 0
1 14 38 0
1 14 69 0
1 15 37 0
1 15 39 0
1 16 28 0
1 16 45 0
1 16 46 0
1 16 48 0
1 16 72 0
1 17 72 0
1 18 45 0
1 18 62 0
1 18 65 0
1 19 28 0
1 19 61 0
1 19 62 0
1 20 22 0
1 20 57 0
1 21 33 0
1 21 57 0
1 23 53 0
1 23 63 0
1 24 35 0
1 24 67 0
1 25 54 0
1 25 61 0
1 25 75 0
1 26 29 0
1 26 32 0
1 26 37 0
1 26 52 0
1 27 46 0
1 27 73 0
1 29 68 0
1 29 74 0
1 30 51 0
1 30 63 0
1 30 69 0
1 31 35 0
1 31 40 0
1 31 41 0
1 31 57 0
1 32 33 0
1 32 65 0
1 33 40 0
1 33 73 0
1 34 65 0
1 35 55 0
1 36 62 0
1 37 44 0
1 38 47 0
1 41 67 0
1 42 48 0
1 42 49 0
1 43 49 0
1 43 54 0
1 43 56 0
1 44 52 0
1 44 74 0
1 46 62 0
1 47 72 0
1 50 73 0
1 51 56 0
1 52 59 0
1 53 62 0
1 53 67 0
1 54 58 0
1 56 69 0
1 57 61 0
1 62 66 0
1 63 74 0
1 65 74 0
1 70 74 0
